
Gurobi 11.0.3 (linux64) logging started Thu Nov 21 23:08:27 2024

Set parameter LogFile to value "/home/yihong/Coding/OR_SUC/SUC_results_bigM100000_thread4/case24_ieee_rts_theta0.5_epsilon0.05_gurobi_seed1030000_num_gen100_N_WDR100_load_scaling_factor1_proposed_T12quadra_cost.txt"
Set parameter TimeLimit to value 3600
Gurobi Optimizer version 11.0.3 build v11.0.3rc0 (linux64 - "Ubuntu 20.04.6 LTS")

CPU model: AMD EPYC 7532 32-Core Processor, instruction set [SSE2|AVX|AVX2]
Thread count: 64 physical cores, 128 logical processors, using up to 4 threads

Optimize a model with 28530 rows, 14981 columns and 657050 nonzeros
Model fingerprint: 0x0408ace6
Model has 1200 quadratic constraints
Variable types: 13781 continuous, 1200 integer (1200 binary)
Coefficient statistics:
  Matrix range     [3e-04, 2e+03]
  QMatrix range    [2e-03, 8e-03]
  QLMatrix range   [5e-01, 6e+01]
  Objective range  [1e+00, 1e+00]
  Bounds range     [1e+00, 1e+00]
  RHS range        [1e+00, 9e+03]
Presolve removed 23554 rows and 6522 columns
Presolve time: 0.19s
Presolved: 4976 rows, 8459 columns, 27939 nonzeros
Presolved model has 1200 quadratic constraint(s)
Variable types: 7259 continuous, 1200 integer (1200 binary)

Root relaxation: objective 2.461714e+04, 4322 iterations, 0.09 seconds (0.13 work units)

    Nodes    |    Current Node    |     Objective Bounds      |     Work
 Expl Unexpl |  Obj  Depth IntInf | Incumbent    BestBd   Gap | It/Node Time

H    0     0                    267410.82957 24617.1393  90.8%     -    0s
*    0     0               0    267410.82957 24617.1393  90.8%     -    0s
     0     0 127745.934    0  386 267410.830 127745.934  52.2%     -    0s
     0     0 255173.361    0   74 267410.830 255173.361  4.58%     -    0s
     0     0 255275.488    0   62 267410.830 255275.488  4.54%     -    0s
     0     0 255275.713    0   50 267410.830 255275.713  4.54%     -    1s
     0     0 255276.301    0   50 267410.830 255276.301  4.54%     -    1s
     0     0 255276.301    0   50 267410.830 255276.301  4.54%     -    1s
     0     2 255276.301    0   50 267410.830 255276.301  4.54%     -    2s
H  107   108                    255323.89163 255291.905  0.01%   9.9    3s
*  107   108              23    255323.89163 255291.905  0.01%   9.9    3s

Cutting planes:
  Gomory: 95
  Lift-and-project: 2
  Implied bound: 154
  MIR: 28
  Flow cover: 78
  RLT: 170
  Relax-and-lift: 72

Explored 131 nodes (12756 simplex iterations) in 3.58 seconds (3.48 work units)
Thread count was 4 (of 128 available processors)

Solution count 3: 255324 255324 267411 

Optimal solution found (tolerance 1.00e-03)
Warning: max constraint violation (1.3897e-07) exceeds tolerance
Best objective 2.553238916333e+05, best bound 2.552919048978e+05, gap 0.0125%
